 vasp.5.4.4.18Apr17-6-g9f103f2a35 (build Aug 24 2024 05:40:03) complex

 executed on           IFC22_IMPI date 2025.09.12  19:49:18

 INCAR:
 POTCAR:    PAW Pt_new 15Nov2007
 POTCAR:    PAW Pt_new 15Nov2007
   VRHFIN =Pt: s1d9

   TITEL  = PAW Pt_new 15Nov2007
   POMASS =  195.080; ZVAL   =   10.000    mass and valenz
   ENMAX  =  230.228; ENMIN  =  172.671 eV

  PAW Pt_new 15Nov2007                  :

 POSCAR: Pt
  positions in cartesian coordinates
 exchange correlation table for  LEXCH =        2
   RHO(1)=    0.500       N(1)  =     2000
   RHO(2)=  100.500       N(2)  =     4000

 ion  position               nearest neighbor table
   1  0.000  0.000  0.000-   2 2.79   3 2.79   4 2.79   2 2.79   3 2.79   2 2.79   4 2.79   2 2.79
                             3 2.79   4 2.79   3 2.79   4 2.79
   2  0.000  0.500  0.500-   1 2.79   3 2.79   4 2.79   1 2.79   4 2.79   1 2.79   3 2.79   1 2.79
                             3 2.79   4 2.79   4 2.79   3 2.79
   3  0.500  0.000  0.500-   1 2.79   2 2.79   4 2.79   1 2.79   4 2.79   2 2.79   4 2.79   4 2.79
                             1 2.79   2 2.79   1 2.79   2 2.79
   4  0.500  0.500  0.000-   1 2.79   2 2.79   3 2.79   2 2.79   3 2.79   1 2.79   3 2.79   3 2.79
                             1 2.79   2 2.79   2 2.79   1 2.79

  LATTYP: Found a simple cubic cell.
 ALAT       =     3.9431503619

  Lattice vectors:

 A1 = (   3.9431503619,   0.0000000000,   0.0000000000)
 A2 = (   0.0000000000,   3.9431503619,   0.0000000000)
 A3 = (   0.0000000000,   0.0000000000,   3.9431503619)

Analysis of symmetry for initial positions (statically):
 Subroutine PRICEL returns following result:

  LATTYP: Found a face centered cubic cell.
 ALAT       =     3.9431503619

[...]

   4 primitive cells build up your supercell.

 Routine SETGRP: Setting up the symmetry group for a
 simple cubic supercell.

 Subroutine GETGRP returns: Found 48 space group operations
 (whereof 48 operations were pure point group operations)
 out of a pool of 48 trial point group operations.

The static configuration has the point symmetry O_h .

Analysis of symmetry for dynamics (positions and initial velocities):
 Subroutine PRICEL returns following result:

  LATTYP: Found a face centered cubic cell.
 ALAT       =     3.9431503619

  Lattice vectors:

 A1 = (   1.9715751809,   1.9715751809,   0.0000000000)
 A2 = (   1.9715751809,   0.0000000000,  -1.9715751809)
 A3 = (   0.0000000000,   1.9715751809,  -1.9715751809)

   4 primitive cells build up your supercell.

 Routine SETGRP: Setting up the symmetry group for a
 simple cubic supercell.

 Subroutine GETGRP returns: Found 48 space group operations
 (whereof 48 operations were pure point group operations)
 out of a pool of 48 trial point group operations.

The dynamic configuration has the point symmetry O_h .

 Subroutine INISYM returns: Found 48 space group operations
 (whereof 48 operations are pure point group operations),
 and found     4 'primitive' translations

 KPOINTS: KPOINTS created by Atomic Simulation Env

Automatic generation of k-mesh.
Space group operators:
 irot       det(A)        alpha          n_x          n_y          n_z        tau_x        tau_y        tau_z
    1     1.000000     0.000000     1.000000     0.000000     0.000000     0.000000     0.000000     0.000000
    2    -1.000000     0.000000     1.000000     0.000000     0.000000     0.000000     0.000000     0.000000
    3     1.000000   120.000000    -0.577350    -0.577350    -0.577350     0.000000     0.000000     0.000000
    4    -1.000000   120.000000    -0.577350    -0.577350    -0.577350     0.000000     0.000000     0.000000
    5     1.000000   120.000000     0.577350     0.577350     0.577350     0.000000     0.000000     0.000000
    6    -1.000000   120.000000     0.577350     0.577350     0.577350     0.000000     0.000000     0.000000
    7     1.000000    90.000000     0.000000     0.000000    -1.000000     0.000000     0.000000     0.000000
    8    -1.000000    90.000000     0.000000     0.000000    -1.000000     0.000000     0.000000     0.000000
    9     1.000000   180.000000     0.000000    -0.707107    -0.707107     0.000000     0.000000     0.000000
   10    -1.000000   180.000000     0.000000    -0.707107    -0.707107     0.000000     0.000000     0.000000
   11     1.000000    90.000000     0.000000     1.000000     0.000000     0.000000     0.000000     0.000000
   12    -1.000000    90.000000     0.000000     1.000000     0.000000     0.000000     0.000000     0.000000
   13     1.000000   180.000000    -0.000000    -0.000000     1.000000     0.000000     0.000000     0.000000
   14    -1.000000   180.000000    -0.000000    -0.000000     1.000000     0.000000     0.000000     0.000000
   15     1.000000   120.000000    -0.577350     0.577350     0.577350     0.000000     0.000000     0.000000
   16    -1.000000   120.000000    -0.577350     0.577350     0.577350     0.000000     0.000000     0.000000
   17     1.000000   120.000000    -0.577350     0.577350    -0.577350     0.000000     0.000000     0.000000
   18    -1.000000   120.000000    -0.577350     0.577350    -0.577350     0.000000     0.000000     0.000000
   19     1.000000    90.000000    -0.000000    -0.000000     1.000000     0.000000     0.000000     0.000000
   20    -1.000000    90.000000    -0.000000    -0.000000     1.000000     0.000000     0.000000     0.000000
   21     1.000000    90.000000    -1.000000     0.000000    -0.000000     0.000000     0.000000     0.000000
   22    -1.000000    90.000000    -1.000000     0.000000    -0.000000     0.000000     0.000000     0.000000
   23     1.000000   180.000000    -0.707107     0.000000    -0.707107     0.000000     0.000000     0.000000
   24    -1.000000   180.000000    -0.707107     0.000000    -0.707107     0.000000     0.000000     0.000000
   25     1.000000   120.000000     0.577350    -0.577350     0.577350     0.000000     0.000000     0.000000
   26    -1.000000   120.000000     0.577350    -0.577350     0.577350     0.000000     0.000000     0.000000
   27     1.000000   120.000000    -0.577350    -0.577350     0.577350     0.000000     0.000000     0.000000
   28    -1.000000   120.000000    -0.577350    -0.577350     0.577350     0.000000     0.000000     0.000000
   29     1.000000   180.000000     1.000000    -0.000000     0.000000     0.000000     0.000000     0.000000
   30    -1.000000   180.000000     1.000000    -0.000000     0.000000     0.000000     0.000000     0.000000
   31     1.000000    90.000000    -0.000000    -1.000000     0.000000     0.000000     0.000000     0.000000
   32    -1.000000    90.000000    -0.000000    -1.000000     0.000000     0.000000     0.000000     0.000000
   33     1.000000   180.000000     0.707107     0.707107     0.000000     0.000000     0.000000     0.000000
   34    -1.000000   180.000000     0.707107     0.707107     0.000000     0.000000     0.000000     0.000000
   35     1.000000    90.000000     1.000000    -0.000000    -0.000000     0.000000     0.000000     0.000000
   36    -1.000000    90.000000     1.000000    -0.000000    -0.000000     0.000000     0.000000     0.000000
   37     1.000000   120.000000     0.577350    -0.577350    -0.577350     0.000000     0.000000     0.000000
   38    -1.000000   120.000000     0.577350    -0.577350    -0.577350     0.000000     0.000000     0.000000
   39     1.000000   180.000000     0.000000     1.000000     0.000000     0.000000     0.000000     0.000000
   40    -1.000000   180.000000     0.000000     1.000000     0.000000     0.000000     0.000000     0.000000
   41     1.000000   120.000000     0.577350     0.577350    -0.577350     0.000000     0.000000     0.000000
   42    -1.000000   120.000000     0.577350     0.577350    -0.577350     0.000000     0.000000     0.000000
   43     1.000000   180.000000    -0.000000    -0.707107     0.707107     0.000000     0.000000     0.000000
   44    -1.000000   180.000000    -0.000000    -0.707107     0.707107     0.000000     0.000000     0.000000
   45     1.000000   180.000000     0.707107    -0.707107     0.000000     0.000000     0.000000     0.000000
   46    -1.000000   180.000000     0.707107    -0.707107     0.000000     0.000000     0.000000     0.000000
   47     1.000000   180.000000     0.707107    -0.000000    -0.707107     0.000000     0.000000     0.000000
   48    -1.000000   180.000000     0.707107    -0.000000    -0.707107     0.000000     0.000000     0.000000

 Subroutine IBZKPT returns following result:

 Found      4 irreducible k-points:

 Following reciprocal coordinates:
            Coordinates               Weight
  0.125000  0.125000  0.125000      8.000000
  0.375000  0.125000  0.125000     24.000000
  0.375000  0.375000  0.125000     24.000000
  0.375000  0.375000  0.375000      8.000000

 Following cartesian coordinates:
            Coordinates               Weight
  0.031701  0.031701  0.031701      8.000000
  0.095102  0.031701  0.031701     24.000000
  0.095102  0.095102  0.031701     24.000000
  0.095102  0.095102  0.095102      8.000000

 SYSTEM =  unknown system
 POSCAR =  Pt

 Startparameter for this run:
   NWRITE =      2    write-flag & timer
   PREC   = normal    normal or accurate (medium, high low for compatibility)
   ISTART =      0    job   : 0-new  1-cont  2-samecut
   ICHARG =      2    charge: 1-file 2-atom 10-const
   ISPIN  =      1    spin polarized calculation?
   LNONCOLLINEAR =      F non collinear calculations
   LSORBIT =      F    spin-orbit coupling
   INIWAV =      1    electr: 0-lowe 1-rand  2-diag
   LASPH  =      F    aspherical Exc in radial PAW
   METAGGA=      F    non-selfconsistent MetaGGA calc.

 Electronic Relaxation 1
   ENCUT  =  300.0 eV  22.05 Ry    4.70 a.u.   5.57  5.57  5.57*2*pi/ulx,y,z
   ENINI  =  300.0     initial cutoff
   ENAUG  =  359.0 eV  augmentation charge cutoff
   NELM   =    100;   NELMIN=  2; NELMDL=  0     # of ELM steps
   EDIFF  = 0.1E-05   stopping-criterion for ELM
   LREAL  =      F    real-space projection
   NLSPLINE    = F    spline interpolate recip. space projectors
   LCOMPAT=      F    compatible to vasp.4.4
   GGA_COMPAT  = T    GGA compatible to vasp.4.4-vasp.4.6
   LMAXPAW     = -100 max onsite density
   LMAXMIX     =    2 max onsite mixed and CHGCAR
   VOSKOWN=      0    Vosko Wilk Nusair interpolation
   ROPT   =    0.00000
 Ionic relaxation
   EDIFFG = 0.1E-04   stopping-criterion for IOM
   NSW    =      0    number of steps for IOM
   NBLOCK =      1;   KBLOCK =      1    inner block; outer block
   IBRION =     -1    ionic relax: 0-MD 1-quasi-New 2-CG
   NFREE  =      0    steps in history (QN), initial steepest desc. (CG)
   ISIF   =      2    stress and relaxation
   IWAVPR =     10    prediction:  0-non 1-charg 2-wave 3-comb
   ISYM   =      2    0-nonsym 1-usesym 2-fastsym
   LCORR  =      T    Harris-Foulkes like correction to forces

   POTIM  = 0.5000    time-step for ionic-motion
   TEIN   =    0.0    initial temperature
   TEBEG  =    0.0;   TEEND  =   0.0 temperature during run
   SMASS  =  -3.00    Nose mass-parameter (am)
   estimated Nose-frequenzy (Omega)   =  0.10E-29 period in steps =****** mass=  -0.355E-27a.u.
   SCALEE = 1.0000    scale energy and forces
   NPACO  =    256;   APACO  = 16.0  distance and # of slots for P.C.
   PSTRESS=    0.0 pullay stress

  Mass of Ions in am
   POMASS = 195.08
  Ionic Valenz
   ZVAL   =  10.00
  Atomic Wigner-Seitz radii
  virtual crystal weights
   VCA    =   1.00
   NELECT =      40.0000    total number of electrons
   NUPDOWN=      -1.0000    fix difference up-down

 DOS related values:
   EMIN   =  10.00;   EMAX   =-10.00  energy-range for DOS
   EFERMI =   0.00
   ISMEAR =     0;   SIGMA  =   0.20  broadening in eV -4-tet -1-fermi 0-gaus

 Electronic relaxation 2 (details)
   IALGO  =     38    algorithm
   LDIAG  =      T    sub-space diagonalisation (order eigenvalues)
   LSUBROT=      F    optimize rotation matrix (better conditioning)
   TURBO    =      0    0=normal 1=particle mesh
   IRESTART =      0    0=no restart 2=restart with 2 vectors
   NREBOOT  =      0    no. of reboots
   NMIN     =      0    reboot dimension
   EREF     =   0.00    reference energy to select bands
   IMIX   =      4    mixing-type and parameters
     AMIX     =   0.40;   BMIX     =  1.00
     AMIX_MAG =   1.60;   BMIX_MAG =  1.00
     AMIN     =   0.10
     WC   =   100.;   INIMIX=   1;  MIXPRE=   1;  MAXMIX= -45

 Intra band minimization:
   WEIMIN = 0.0000     energy-eigenvalue tresh-hold
   EBREAK =  0.10E-07  absolut break condition
   DEPER  =   0.30     relativ break condition

   TIME   =   0.40     timestep for ELM

  volume/ion in A,a.u.               =      15.33       103.43
  Fermi-wavevector in a.u.,A,eV,Ry     =   1.419880  2.683183 27.430132  2.016058
  Thomas-Fermi vector in A             =   2.540854

 Write flags
   LWAVE        =      F    write WAVECAR
   LDOWNSAMPLE  =      F    k-point downsampling of WAVECAR
   LCHARG       =      F    write CHGCAR
   LVTOT        =      F    write LOCPOT, total local potential
   LVHAR        =      F    write LOCPOT, Hartree potential only
   LELF         =      F    write electronic localiz. function (ELF)
   LORBIT       =      0    0 simple, 1 ext, 2 COOP (PROOUT), +10 PAW based schemes

 Dipole corrections
   LMONO  =      F    monopole corrections only (constant potential shift)
   LDIPOL =      F    correct potential (dipole corrections)
   IDIPOL =      0    1-x, 2-y, 3-z, 4-all directions
   EPSILON=  1.0000000 bulk dielectric constant

 Exchange correlation treatment:
   GGA     =    --    GGA type
   VOSKOWN=      0    Vosko Wilk Nusair interpolation
   LHFCALC =     F    Hartree Fock is set to
   LHFONE  =     F    Hartree Fock one center treatment
   AEXX    =    0.0000 exact exchange contribution

 Linear response parameters
   LEPSILON=     F    determine dielectric tensor
   LRPA    =     F    only Hartree local field effects (RPA)
   LNABLA  =     F    use nabla operator in PAW spheres
   LVEL    =     F    velocity operator in full k-point grid
   LINTERFAST=   F  fast interpolation
   KINTER  =     0    interpolate to denser k-point grid
   CSHIFT  =0.1000    complex shift for real part using Kramers Kronig
   OMEGAMAX=  -1.0    maximum frequency
   DEG_THRESHOLD= 0.2000000E-02 threshold for treating states as degnerate
   RTIME   =   -0.100 relaxation time in fs
  (WPLASMAI=    0.000 imaginary part of plasma frequency in eV, 0.658/RTIME)
   DFIELD  = 0.0000000 0.0000000 0.0000000 field for delta impulse in time

 Orbital magnetization related:
   ORBITALMAG=     F  switch on orbital magnetization
   LCHIMAG   =     F  perturbation theory with respect to B field
   DQ        =  0.001000  dq finite difference perturbation B field
   LLRAUG    =     F  two centre corrections for induced B field

 Static calculation
 charge density and potential will be updated during run
 non-spin polarized calculation
 Variant of blocked Davidson
 Davidson routine will perform the subspace rotation
 perform sub-space diagonalisation
    after iterative eigenvector-optimisation
 modified Broyden-mixing scheme, WC =      100.0
 initial mixing is a Kerker type mixing with AMIX =  0.4000 and BMIX =      1.0000
 Hartree-type preconditioning will be used
 using additional bands            4
 reciprocal scheme for non local part
 use partial core corrections
 calculate Harris-corrections to forces
   (improved forces if not selfconsistent)
 use of overlap-Matrix (Vanderbilt PP)
 Gauss-broadening in eV      SIGMA  =   0.20

  energy-cutoff  :      300.00
  volume of cell :       61.31
      direct lattice vectors                 reciprocal lattice vectors
     3.943150362  0.000000000  0.000000000     0.253604329 -0.000000000  0.000000000
     0.000000000  3.943150362  0.000000000     0.000000000  0.253604329  0.000000000
     0.000000000  0.000000000  3.943150362    -0.000000000 -0.000000000  0.253604329

  length of vectors
     3.943150362  3.943150362  3.943150362     0.253604329  0.253604329  0.253604329

 k-points in units of 2pi/SCALE and weight: KPOINTS created by Atomic Simulation Env
   0.03170054  0.03170054  0.03170054       0.125
   0.09510162  0.03170054  0.03170054       0.375
   0.09510162  0.09510162  0.03170054       0.375
   0.09510162  0.09510162  0.09510162       0.125

 k-points in reciprocal lattice and weights: KPOINTS created by Atomic Simulation Env
   0.12500000  0.12500000  0.12500000       0.125
   0.37500000  0.12500000  0.12500000       0.375
   0.37500000  0.37500000  0.12500000       0.375
   0.37500000  0.37500000  0.37500000       0.125

 position of ions in fractional coordinates (direct lattice)
   0.00000000  0.00000000  0.00000000
   0.00000000  0.50000000  0.50000000
   0.50000000  0.00000000  0.50000000
   0.50000000  0.50000000  0.00000000

 position of ions in cartesian coordinates  (Angst):
   0.00000000  0.00000000  0.00000000
   0.00000000  1.97157518  1.97157518
   1.97157518  0.00000000  1.97157518
   1.97157518  1.97157518  0.00000000

 k-point  1 :   0.1250 0.1250 0.1250  plane waves:     724
 k-point  2 :   0.3750 0.1250 0.1250  plane waves:     733
 k-point  3 :   0.3750 0.3750 0.1250  plane waves:     723
 k-point  4 :   0.3750 0.3750 0.3750  plane waves:     717

 maximum and minimum number of plane-waves per node :       733      717

 maximum number of plane-waves:       733
 maximum index in each direction:
   IXMAX=    5   IYMAX=    5   IZMAX=    5
   IXMIN=   -5   IYMIN=   -5   IZMIN=   -5

 serial   3D FFT for wavefunctions
 parallel 3D FFT for charge:
    minimum data exchange during FFTs selected (reduces bandwidth)

 Broyden mixing: mesh for mixing (old mesh)
   NGX = 11   NGY = 11   NGZ = 11
  (NGX  = 36   NGY  = 36   NGZ  = 36)
  gives a total of   1331 points

 initial charge density was supplied:
 charge density of overlapping atoms calculated
 number of electron      40.0000000 magnetization
 keeping initial charge density in first step

 Maximum index for augmentation-charges         5575 (set IRDMAX)

 First call to EWALD:  gamma=   0.450
 Maximum number of real-space cells 3x 3x 3
 Maximum number of reciprocal cells 3x 3x 3

--------------------------------------- Iteration      1(   1)  ---------------------------------------

 eigenvalue-minimisations  :   208
 total energy-change (2. order) : 0.1573936E+03  (-0.1518418E+04)
 number of electron      40.0000000 magnetization
 augmentation part       40.0000000 magnetization

 Free energy of the ion-electron system (eV)
  alpha Z        PSCENC =       239.95561605
  Ewald energy   TEWEN  =     -3348.64424118
  -Hartree energ DENC   =      -288.93692721
  -exchange      EXHF   =         0.00000000
  -V(xc)+E(xc)   XCENC  =        17.18126372
  PAW double counting   =      2778.60765816    -2674.15502866
  entropy T*S    EENTRO =        -0.09685362
  eigenvalues    EBANDS =       504.78241495
  atomic energy  EATOM  =      2928.69970938
  Solvation  Ediel_sol  =         0.00000000
  free energy    TOTEN  =       157.39361160 eV

  energy without entropy =      157.49046522  energy(sigma->0) =      157.44203841

[...]

 eigenvalue-minimisations  :   248
 total energy-change (2. order) :-0.1858883E+03  (-0.1815654E+03)
 number of electron      40.0000000 magnetization
 augmentation part       40.0000000 magnetization

[...]

 Broyden mixing:
  rms(total) = 0.25101E+01    rms(broyden)= 0.25100E+01
  rms(prec ) = 0.30855E+01
  weight for this iteration     100.00

[...]

 eigenvalues of (default mixing * dielectric matrix)
  average eigenvalue GAMMA=   1.9289
  1.9289

[...]

 eigenvalue-minimisations  :   216
 total energy-change (2. order) : 0.1072132E-02  (-0.1119129E-03)
 number of electron      39.9999991 magnetization
 augmentation part       12.2527855 magnetization

[...]

 Broyden mixing:
  rms(total) = 0.21933E-02    rms(broyden)= 0.21932E-02
  rms(prec ) = 0.24789E-02
  weight for this iteration     100.00

 eigenvalues of (default mixing * dielectric matrix)
  average eigenvalue GAMMA=   1.6900
  2.5411  2.5411  1.2717  1.0481  1.0481

[...]

--------------------------------------- Iteration      1(  11)  ---------------------------------------

 eigenvalue-minimisations  :   120
 total energy-change (2. order) :-0.5864299E-06  (-0.2333797E-06)
 number of electron      39.9999991 magnetization
 augmentation part       12.2534683 magnetization

 Free energy of the ion-electron system (eV)
  alpha Z        PSCENC =       239.95561605
  Ewald energy   TEWEN  =     -3348.64424118
  -Hartree energ DENC   =      -247.39780385
  -exchange      EXHF   =         0.00000000
  -V(xc)+E(xc)   XCENC  =        15.27590890
  PAW double counting   =      3664.74954170    -3572.92806873
  entropy T*S    EENTRO =        -0.18433674
  eigenvalues    EBANDS =       290.45809553
  atomic energy  EATOM  =      2928.69970938
  Solvation  Ediel_sol  =         0.00000000
  free energy    TOTEN  =       -30.01557893 eV

  energy without entropy =      -29.83124219  energy(sigma->0) =      -29.92341056

 average (electrostatic) potential at core
  the test charge radii are     1.2059
  (the norm of the test charge is              1.0000)
       1 -63.3125       2 -63.3125       3 -63.3125       4 -63.3125

 E-fermi :  10.7954     XC(G=0): -13.5980     alpha+bet :-16.4801

 k-point     1 :       0.1250    0.1250    0.1250
  band No.  band energies     occupation
      1       1.3608      2.00000
      2       4.2428      2.00000
      3       4.2428      2.00000
      4       4.2428      2.00000
      5       4.6960      2.00000
      6       4.6960      2.00000
      7       4.6960      2.00000
      8       6.8581      2.00000
      9       7.3079      2.00000
     10       7.3079      2.00000
     11       9.1284      2.00000
     12       9.1284      2.00000
     13       9.2880      2.00000
     14       9.2880      2.00000
     15       9.2880      2.00000
     16      10.1621      1.99999
     17      10.1621      1.99999
     18      10.1621      1.99999
     19      11.0923      0.03573
     20      11.0923      0.03573
     21      11.0923      0.03573
     22      13.6268      0.00000
     23      13.6268      0.00000
     24      13.6268      0.00000

[...]

 k-point     4 :       0.3750    0.3750    0.3750
  band No.  band energies     occupation
      1       3.5752      2.00000
      2       4.0886      2.00000
      3       4.0886      2.00000
      4       4.0886      2.00000
      5       6.6941      2.00000
      6       6.6941      2.00000
      7       6.6941      2.00000
      8       7.1995      2.00000
      9       7.1995      2.00000
     10       7.4786      2.00000
     11       7.4786      2.00000
     12       7.4786      2.00000
     13       8.3235      2.00000
     14       8.3235      2.00000
     15       8.3235      2.00000
     16       8.3953      2.00000
     17      10.3256      1.99910
     18      10.3256      1.99910
     19      10.8814      0.54300
     20      10.8814      0.54300
     21      10.8814      0.54300
     22      12.7578      0.00000
     23      12.7578      0.00000
     24      12.7578      0.00000

 soft charge-density along one line, spin component           1
         0         1         2         3         4         5         6         7         8         9
 total charge-density along one line

------------------------ aborting loop because EDIFF is reached ----------------------------------------

  FORCE on cell =-STRESS in cart. coord.  units (eV):
  Direction    XX          YY          ZZ          XY          YZ          ZX
  Alpha Z   239.95562   239.95562   239.95562
  Ewald   -1116.21524 -1116.21524 -1116.21524     0.00000     0.00000     0.00000
  Hartree    82.46576    82.46576    82.46576    -0.00000    -0.00000    -0.00000
  E(xc)    -176.79707  -176.79707  -176.79707    -0.00000    -0.00000     0.00000
  Local     149.19062   149.19062   149.19062     0.00000    -0.00000     0.00000
  n-local    37.90451    17.89938    23.66292    11.91693     9.33590     8.79951
  augment   207.20667   207.20667   207.20667     0.00000    -0.00000    -0.00000
  Kinetic   593.43873   579.64397   578.02685     7.17034     5.91976     1.73262
  Fock        0.00000     0.00000     0.00000     0.00000     0.00000     0.00000
  Total      -4.00152    -4.00152    -4.00152     0.00000    -0.00000     0.00000
  in kB    -104.56975  -104.56975  -104.56975     0.00000    -0.00000     0.00000

 VOLUME and BASIS-vectors are now :
  energy-cutoff  :      300.00
  volume of cell :       61.31
      direct lattice vectors                 reciprocal lattice vectors
     3.943150362  0.000000000  0.000000000     0.253604329 -0.000000000  0.000000000
     0.000000000  3.943150362  0.000000000     0.000000000  0.253604329  0.000000000
     0.000000000  0.000000000  3.943150362    -0.000000000 -0.000000000  0.253604329

  length of vectors
     3.943150362  3.943150362  3.943150362     0.253604329  0.253604329  0.253604329

 FORCES acting on ions
    electron-ion (+dipol)            ewald-force                    non-local-force                 convergence-correction
   -.179E-13 -.189E-13 -.284E-13   -.174E-13 0.279E-14 -.223E-15   -.348E-23 -.165E-23 -.165E-23   0.190E-13 0.772E-14 -.120E-13
   -.183E-13 0.169E-12 0.164E-12   -.175E-13 -.465E-14 0.363E-14   0.720E-24 0.331E-23 0.331E-23   0.155E-13 -.478E-15 0.415E-14
   0.173E-12 -.190E-13 -.148E-12   0.157E-13 0.616E-14 0.367E-14   -.122E-23 0.000E+00 -.207E-23   -.161E-13 0.880E-14 0.593E-14
   0.173E-12 0.169E-12 0.249E-12   0.155E-13 -.129E-14 -.812E-14   0.628E-23 0.496E-23 -.414E-23   -.560E-14 0.118E-14 -.163E-13
   0.310E-12 0.300E-12 0.236E-12   -.367E-14 0.301E-14 -.104E-14   0.231E-23 0.662E-23 -.455E-23   0.129E-13 0.172E-13 -.183E-13

 POSITION                                       TOTAL-FORCE (eV/Angst)
      0.00000      0.00000      0.00000         0.000000      0.000000     -0.000000
      0.00000      1.97158      1.97158         0.000000     -0.000000      0.000000
      1.97158      0.00000      1.97158        -0.000000      0.000000      0.000000
      1.97158      1.97158      0.00000        -0.000000      0.000000     -0.000000
    total drift:                                0.000000      0.000000      0.000000

  FREE ENERGIE OF THE ION-ELECTRON SYSTEM (eV)
  free  energy   TOTEN  =       -30.01557893 eV

  energy  without entropy=      -29.83124219  energy(sigma->0) =      -29.92341056